c turning on binary mode checking
c parsing input formula with 202048 variables and 780975 clauses
c finished parsing, read 19215195 bytes from proof file
c detected empty clause; start verification via backward checking
c 25066 of 780975 clauses in core                            
c 34899 of 497124 lemmas in core using 258619 resolution steps
c 0 RAT lemmas in core; 2121 redundant literals in core lemmas
s VERIFIED
c verification time: 3.268 seconds
